11
2147483647 83 80 76 10 16 24 19 79 75 35 
83 2147483647 62 61 91 68 12 54 38 54 25 
80 62 2147483647 20 85 59 20 53 50 62 77 
76 61 20 2147483647 89 98 6 91 97 65 99 
10 91 85 89 2147483647 97 70 45 14 33 75 
16 68 59 98 97 2147483647 5 71 33 53 13 
24 12 20 6 70 5 2147483647 13 34 2 55 
19 54 53 91 45 71 13 2147483647 2 34 66 
79 38 50 97 14 33 34 2 2147483647 94 98 
75 54 62 65 33 53 2 34 94 2147483647 40 
35 25 77 99 75 13 55 66 98 40 2147483647 
